(set-info :smt-lib-version 2.6)
(set-logic QF_UFLRA)
(set-info :source |
MathSat group

|)
(set-info :category "random")
(set-info :status sat)
(declare-fun x0 () Real)
(declare-fun x1 () Real)
(declare-fun x2 () Real)
(declare-fun x3 () Real)
(declare-fun x4 () Real)
(declare-fun x5 () Real)
(declare-fun x6 () Real)
(declare-fun x7 () Real)
(declare-fun x8 () Real)
(declare-fun x9 () Real)
(declare-fun x10 () Real)
(declare-fun x11 () Real)
(declare-fun x12 () Real)
(declare-fun x13 () Real)
(declare-fun x14 () Real)
(declare-fun x15 () Real)
(declare-fun x16 () Real)
(declare-fun x17 () Real)
(declare-fun x18 () Real)
(declare-fun x19 () Real)
(declare-fun x20 () Real)
(declare-fun x21 () Real)
(declare-fun x22 () Real)
(declare-fun x23 () Real)
(declare-fun x24 () Real)
(declare-fun x25 () Real)
(declare-fun x26 () Real)
(declare-fun x27 () Real)
(declare-fun x28 () Real)
(declare-fun x29 () Real)
(declare-fun x30 () Real)
(declare-fun x31 () Real)
(declare-fun x32 () Real)
(declare-fun x33 () Real)
(declare-fun x34 () Real)
(declare-fun x35 () Real)
(declare-fun x36 () Real)
(declare-fun x37 () Real)
(declare-fun x38 () Real)
(declare-fun x39 () Real)
(declare-fun x40 () Real)
(declare-fun x41 () Real)
(declare-fun x42 () Real)
(declare-fun x43 () Real)
(declare-fun x44 () Real)
(declare-fun x45 () Real)
(declare-fun x46 () Real)
(declare-fun x47 () Real)
(declare-fun x48 () Real)
(declare-fun x49 () Real)
(declare-fun f0_1 (Real) Real)
(declare-fun f0_2 (Real Real) Real)
(declare-fun f0_3 (Real Real Real) Real)
(declare-fun f0_4 (Real Real Real Real) Real)
(declare-fun P0 () Bool)
(declare-fun P1 () Bool)
(declare-fun P2 () Bool)
(declare-fun P3 () Bool)
(declare-fun P4 () Bool)
(declare-fun P5 () Bool)
(declare-fun P6 () Bool)
(declare-fun P7 () Bool)
(declare-fun P8 () Bool)
(declare-fun P9 () Bool)
(declare-fun P10 () Bool)
(declare-fun P11 () Bool)
(declare-fun P12 () Bool)
(declare-fun P13 () Bool)
(declare-fun P14 () Bool)
(declare-fun P15 () Bool)
(declare-fun P16 () Bool)
(declare-fun P17 () Bool)
(declare-fun P18 () Bool)
(declare-fun P19 () Bool)
(declare-fun P20 () Bool)
(declare-fun P21 () Bool)
(declare-fun P22 () Bool)
(declare-fun P23 () Bool)
(declare-fun P24 () Bool)
(declare-fun P25 () Bool)
(declare-fun P26 () Bool)
(declare-fun P27 () Bool)
(declare-fun P28 () Bool)
(declare-fun P29 () Bool)
(declare-fun P30 () Bool)
(declare-fun P31 () Bool)
(declare-fun P32 () Bool)
(declare-fun P33 () Bool)
(declare-fun P34 () Bool)
(declare-fun P35 () Bool)
(declare-fun P36 () Bool)
(declare-fun P37 () Bool)
(declare-fun P38 () Bool)
(declare-fun P39 () Bool)
(declare-fun P40 () Bool)
(declare-fun P41 () Bool)
(declare-fun P42 () Bool)
(declare-fun P43 () Bool)
(declare-fun P44 () Bool)
(declare-fun P45 () Bool)
(declare-fun P46 () Bool)
(declare-fun P47 () Bool)
(declare-fun P48 () Bool)
(declare-fun P49 () Bool)
(assert (let ((?v_39 (* 17 x41)) (?v_0 (* 16 x11)) (?v_176 (< (- (+ (* 11 x0) (* 3 x27)) (* 13 x1)) 15)) (?v_107 (<= (+ (- (* 24 x27) (* 15 x44)) (* 15 x22)) 7)) (?v_58 (* 27 x43)) (?v_38 (* 7 x49)) (?v_78 (* 10 x20)) (?v_182 (< (- (+ (* 17 x26) (* 22 x38)) (* 8 x45)) 19)) (?v_219 (< (+ (- (* 15 x11) (* 17 x24)) (* 21 x23)) 6)) (?v_213 (< (+ (- (* 12 x5) (* 4 x36)) (* 12 x41)) 16))) (let ((?v_164 (< (+ (- ?v_38 (* 14 x10)) (* 25 x4)) 10)) (?v_59 (= (f0_2 x38 x10) x24)) (?v_43 (= (f0_2 x3 x49) x5)) (?v_225 (distinct x8 (f0_2 x26 x15))) (?v_9 (f0_1 x16))) (let ((?v_214 (= (f0_1 x7) ?v_9)) (?v_75 (f0_1 x2))) (let ((?v_7 (distinct ?v_75 (f0_1 x33))) (?v_189 (f0_1 x20))) (let ((?v_202 (distinct (f0_2 x34 x27) ?v_189)) (?v_97 (= x29 (f0_2 x4 x41))) (?v_206 (= ?v_75 (f0_1 x30))) (?v_141 (distinct x18 (f0_1 x10))) (?v_53 (distinct x33 x4)) (?v_65 (f0_1 x25))) (let ((?v_110 (= x43 ?v_65)) (?v_109 (= x39 x31)) (?v_3 (= (f0_2 x23 x28) (f0_2 x37 x44))) (?v_46 (distinct (f0_2 x5 x41) x12)) (?v_118 (distinct (f0_2 x17 x34) x24)) (?v_47 (distinct x11 (f0_2 x42 x33))) (?v_224 (= (f0_2 x30 x2) (f0_2 x16 x31))) (?v_92 (f0_1 x37))) (let ((?v_136 (distinct (f0_2 x49 x37) ?v_92)) (?v_121 (= (f0_2 x22 x26) (f0_2 x44 x29))) (?v_63 (= (f0_2 x12 x34) x15)) (?v_124 (= (f0_2 x47 x7) (f0_2 x27 x30))) (?v_20 (f0_1 x8))) (let ((?v_49 (= (f0_2 x14 x32) ?v_20)) (?v_28 (= (f0_2 x18 x15) x22)) (?v_44 (distinct (f0_1 x38) ?v_65)) (?v_1 (= (f0_2 x2 x5) x48)) (?v_89 (= ?v_9 (f0_2 x13 x27))) (?v_8 (distinct (f0_1 x3) (f0_1 x41))) (?v_171 (= x42 (f0_2 x48 x26))) (?v_129 (f0_2 x47 x0))) (let ((?v_149 (= ?v_189 ?v_129)) (?v_157 (= (f0_1 x23) ?v_75)) (?v_52 (= (f0_2 x1 x20) (f0_2 x35 x19))) (?v_26 (= (f0_2 x45 x48) x32)) (?v_61 (= (f0_2 x3 x46) (f0_1 x47))) (?v_95 (distinct (f0_2 x27 x0) x39)) (?v_48 (= x21 x44)) (?v_234 (= (f0_2 x8 x44) (f0_1 x1))) (?v_168 (distinct (f0_1 x43) (f0_1 x44))) (?v_126 (= (f0_1 x32) ?v_129)) (?v_153 (distinct (f0_2 x28 x45) x36)) (?v_122 (distinct x14 (f0_2 x8 x3))) (?v_6 (distinct x3 x13)) (?v_73 (= x49 (f0_2 x34 x24))) (?v_23 (= (f0_1 x4) (f0_2 x38 x45))) (?v_230 (= x0 (f0_2 x17 x22))) (?v_195 (distinct x14 x0)) (?v_138 (= (f0_2 x35 x14) ?v_92)) (?v_33 (= (f0_1 x48) ?v_20)) (?v_190 (distinct x28 (f0_1 x6))) (?v_11 (= x3 (f0_2 x33 x41))) (?v_2 (= x14 (f0_2 x6 x19))) (?v_98 (not P16)) (?v_16 (not ?v_1))) (let ((?v_57 (not ?v_26)) (?v_166 (not ?v_121)) (?v_74 (not ?v_63)) (?v_64 (not ?v_107)) (?v_15 (not P7)) (?v_51 (not ?v_109)) (?v_66 (not P3)) (?v_13 (not ?v_59)) (?v_76 (not P9)) (?v_14 (not ?v_46)) (?v_17 (not ?v_3)) (?v_62 (not ?v_195)) (?v_60 (not P33)) (?v_152 (not ?v_6)) (?v_69 (not ?v_7)) (?v_21 (not P29)) (?v_32 (not ?v_89)) (?v_55 (not ?v_214)) (?v_37 (not ?v_44)) (?v_209 (not ?v_138)) (?v_54 (not ?v_182)) (?v_246 (not ?v_11)) (?v_130 (not ?v_168)) (?v_24 (not ?v_2)) (?v_35 (not P47)) (?v_93 (not ?v_52)) (?v_144 (not P34)) (?v_22 (not P20)) (?v_30 (not ?v_61)) (?v_205 (not P41)) (?v_80 (not P24)) (?v_85 (not P42)) (?v_81 (not P49)) (?v_135 (not P2)) (?v_82 (not P10)) (?v_183 (not P37)) (?v_204 (not ?v_48)) (?v_142 (not P21)) (?v_84 (not ?v_23)) (?v_215 (not ?v_171)) (?v_150 (not P31)) (?v_146 (not P48)) (?v_87 (not ?v_213)) (?v_184 (not P8)) (?v_255 (not ?v_110)) (?v_253 (not ?v_176)) (?v_200 (not ?v_53)) (?v_191 (not P17)) (?v_120 (not ?v_73)) (?v_114 (not ?v_206)) (?v_199 (not P4)) (?v_127 (not P15)) (?v_192 (not P32)) (?v_106 (not ?v_136)) (?v_137 (not P11)) (?v_250 (not P45)) (?v_105 (not ?v_95)) (?v_132 (not P12)) (?v_187 (not ?v_97)) (?v_188 (not P19)) (?v_165 (not P28)) (?v_145 (not ?v_49)) (?v_163 (not P38)) (?v_119 (not ?v_230)) (?v_243 (not P27)) (?v_237 (not P36)) (?v_181 (not P18)) (?v_151 (not P13)) (?v_170 (not P43)) (?v_223 (not P22)) (?v_143 (not ?v_124)) (?v_148 (not P39)) (?v_158 (not ?v_126)) (?v_201 (not P6)) (?v_147 (not P25)) (?v_227 (not ?v_157)) (?v_156 (not P23)) (?v_217 (not ?v_141)) (?v_203 (not ?v_149)) (?v_173 (not ?v_234)) (?v_175 (not ?v_8)) (?v_212 (not ?v_122)) (?v_174 (not P26)) (?v_161 (not ?v_33)) (?v_254 (not P44)) (?v_256 (not P5)) (?v_196 (not ?v_28)) (?v_208 (not ?v_47)) (?v_238 (not ?v_190)) (?v_231 (not P40)) (?v_226 (not ?v_164)) (?v_221 (not ?v_202)) (?v_220 (not P0)) (?v_245 (not P30)) (?v_242 (not P14)) (?v_257 (not ?v_153)) (?v_251 (not ?v_225)) (?v_236 (not P1)) (?v_249 (not P35)) (?v_248 (not ?v_224)) (?v_29 (< (+ ?v_58 (* 4 x32) (* 5 x40)) 12)) (?v_34 (<= (+ (- 0 (* 2 x2)) ?v_0) 0)) (?v_12 (< (- (+ (* 16 x29) (* 27 x29)) 0) 7)) (?v_96 (<= (+ (* 10 x41) (* 26 x38) x47) 17))) (let ((?v_116 (not ?v_12)) (?v_177 (<= (+ (* 26 x22) (* 19 x9) (* 26 x48)) 12))) (let ((?v_42 (not ?v_177)) (?v_45 (not ?v_34)) (?v_68 (<= (- (+ (* 12 x0) (* 5 x28)) x24) 2)) (?v_139 (distinct (- (+ ?v_38 ?v_78) 0) 17)) (?v_179 (not ?v_29))) (let ((?v_86 (not ?v_68)) (?v_155 (not ?v_96)) (?v_154 (not ?v_139)) (?v_240 (< (+ (* 21 x46) (* 23 x44) (* 7 x26)) 5))) (let ((?v_218 (not ?v_240)) (?v_5 (<= (- (+ (* (- 18) x16) (* 19 x47)) (* 27 x10)) (- 13)))) (let ((?v_10 (not ?v_5)) (?v_102 (<= (+ (* (- 1) x28) (* 24 x43) (* 24 x34)) (- 18)))) (let ((?v_133 (not ?v_102)) (?v_194 (< (- (- (* (- 19) x18) (* 21 x18)) (* 18 x8)) 10))) (let ((?v_117 (not ?v_194)) (?v_83 (<= (+ (* (- 18) x42) (* 22 x47) (* 3 x24)) 14))) (let ((?v_197 (not ?v_83)) (?v_19 (< (+ (* 13 x8) (* 2 x15) (* 5 x1)) (- 25))) (?v_4 (<= (+ (- (* (- 4) x23) (* 23 x15)) (* 7 x43)) 24)) (?v_27 (< (+ (- (* 3 x38) 0) (* 7 x47)) (- 10)))) (let ((?v_70 (not ?v_27)) (?v_169 (< (+ (- (* (- 13) x16) (* 26 x37)) (* 6 x44)) 16)) (?v_71 (< (+ (* 14 x38) (* 21 x6) (* 21 x1)) (- 6))) (?v_56 (<= (- (+ (* (- 23) x36) (* 27 x45)) (* 2 x49)) (- 3))) (?v_18 (< (- (+ (* (- 27) x4) ?v_0) (* 24 x49)) 7))) (let ((?v_134 (not ?v_18)) (?v_25 (<= (- (+ (* (- 4) x20) (* 18 x22)) (* 19 x34)) 2)) (?v_210 (or P9 ?v_5)) (?v_185 (< (- (* (- 17) x20) (* 7 x34)) (- 14)))) (let ((?v_31 (not ?v_185)) (?v_115 (<= (+ (- (* (- 20) x49) (* 14 x8)) (* 18 x11)) (- 19)))) (let ((?v_91 (not ?v_115)) (?v_108 (< (- (+ (* (- 27) x1) (* 26 x9)) (* 20 x24)) 5))) (let ((?v_50 (not ?v_108)) (?v_77 (<= (+ (* (- 2) x31) (* 14 x34)) (- 27)))) (let ((?v_128 (not ?v_77)) (?v_140 (<= (+ (- (* (- 20) x7) (* 16 x35)) (* 22 x25)) 0))) (let ((?v_36 (not ?v_140)) (?v_104 (distinct (+ (* 12 x33) (* 14 x23) (* 11 x28)) (- 18))) (?v_103 (= (- (* (- 5) x37) (* 26 x32)) 26))) (let ((?v_40 (not ?v_103)) (?v_79 (<= (- (* (- 10) x11) (* 22 x9)) 26)) (?v_41 (<= (- (- (* (- 14) x26) (* 24 x38)) (* 14 x31)) (- 7))) (?v_113 (< (- (- (* (- 23) x43) (* 2 x29)) ?v_39) 10)) (?v_67 (= (+ (* 17 x16) x11 (* 25 x8)) (- 4))) (?v_101 (distinct (- (+ ?v_39 (* 21 x31)) (* 18 x18)) (- 10))) (?v_233 (<= (+ (* (- 19) x30) (* 8 x24) (* 8 x20)) (- 7))) (?v_90 (<= (+ (* 9 x47) (* 6 x42) (* 19 x37)) (- 7))) (?v_160 (= (- (- (* (- 17) x29) (* 25 x28)) ?v_58) (- 1)))) (let ((?v_72 (not ?v_160)) (?v_88 (not ?v_25)) (?v_99 (< (- (* (- 27) x45) (* 3 x18)) (- 23)))) (let ((?v_172 (not ?v_99)) (?v_162 (not ?v_67)) (?v_125 (<= (+ (- (* (- 27) x31) (* 15 x10)) (* 23 x47)) 22)) (?v_123 (not ?v_41)) (?v_94 (not ?v_71)) (?v_100 (<= (+ (* 10 x9) ?v_78) (- 1)))) (let ((?v_159 (not ?v_100)) (?v_112 (distinct (+ (- (* (- 6) x42) (* 27 x34)) (* 23 x48)) (- 23))) (?v_216 (not ?v_4)) (?v_111 (< (- (- (* (- 10) x24) (* 13 x13)) (* 20 x37)) 24))) (let ((?v_229 (not ?v_111)) (?v_211 (not ?v_113)) (?v_167 (not ?v_90)) (?v_207 (<= (+ (* 16 x24) (* 26 x34) (* 2 x34)) (- 6)))) (let ((?v_131 (not ?v_207)) (?v_198 (not ?v_101)) (?v_186 (not ?v_79)) (?v_178 (not ?v_125)) (?v_228 (not ?v_56)) (?v_241 (not ?v_169)) (?v_244 (distinct (- (+ (* 2 x9) (* 22 x32)) (* 18 x47)) (- 1)))) (let ((?v_180 (not ?v_244)) (?v_193 (not ?v_104)) (?v_222 (or ?v_10 ?v_22)) (?v_252 (<= (- (- (* (- 9) x22) 0) (* 12 x8)) 1))) (let ((?v_232 (not ?v_252)) (?v_239 (< (- (- 0 (* 25 x12)) (* 18 x38)) (- 16))) (?v_235 (not ?v_19))) (let ((?v_247 (not ?v_239))) (and (and (and (and (and (and (and (and (and (and (and (and (and (and (and (and (and (and (and (and (and (and (and (and (and (and (and (and (and (and (and (and (and (and (and (and (and (and (and (and (and (and (and (and (and (and (and (and (and (and (and (and (and (and (and (and (and (and (and (and (and (and (and (and (and (and (and (and (and (and (and (and (and (and (and (and (and (and (and (and (and (and (and (and (and (and (and (and (and (and (and (and (and (and (and (and (and (and (and (and (and (and (and (and (and (and (and (and (and (and (and (and (and (and (and (and (and (and (and (and (and (and (and (and (and (and (and (and (and (and (and (and (and (and (and (and (and (and (and (and (and (and (and (and (and (and (and (and (and (and (and (and (and (and (and (and (and (and (and (and (and (and (and (and (and (and (and (and (and (and (and (and (and (and (and (and (and (and (and (and (and (and (and (and (and (and (and (and (and (and (and (and (and (and (and (and (and (and (and (and (and (and (and (and (and (and (and (and (and (and (and (and (and (and (and (and (and (and (and (and (and (and (and (and (and (and (and (and (and (and (and (and (and (and (and (and (and (and (and (and (and (and (and (and (and (and (and (and (and (and (and (and (and (and (and (and (and (and (and (and (and (and (and (and (and (and (and (and (and (and (and (and (and (and (and (and (and (and (and (and (and (and (and (and (and (and (and (and (and (and (and (and (and (and (and (and (and (and (and (and (and (and (and (and (and (and (and (and (and (and (and (and (and (and (and (and (and (and (and (and (and (and (and (and (and (and (and (and (and (and (and (and (and (and (and (and (and (and (and (and (and (and (and (and (and (and (and (and (and (and (and (and (and (and (and (and (and (and (and (and (and (and (and (and (and (and (and (and (and (and (and (and (and (and (and (and (and (and (and (and (and (and (and (and (and (and (and (and (and (and (and (and (and (and (and (and (and (and (and (and (and (and (and (and (and (and (and (and (and (and (and (and (and (and (and (and (and (and (and (and (and (and (and (and (and (and (and (and (and (and (and (and (and (and (and (and (and (and (and (and (and (and (and (and (and (and (and (and (and (and (and (and (and (and (and (and (and (and (and (and (and (and (and (and (and (and (and (and (and (and (and (and (and (and (and (and (and (and (and (and (and (and (and (and (and (and (and (and (and (and (and (and (and (and (and (and (and (and (and (and (and (and (and (and (and (and (and (and (and (and (and (and (and (and (and (and (and (and (and (and (and (and (and (and (and (and (and (and (and (and (and (and (and (and (and (and (and (and (and (and (and (and (and (and (and (and (and (and (and (and (and (and (and (and (and (and (and (and (and (and (and (and (and (and (and (and (and (and (and (and (and (and (and (and (and (and (and (and (and (and (and (and (and (and (and (and (and (and (and (and (and (and (and (and (and (and (and (and (and (or (or P23 ?v_10) ?v_98) (or (or ?v_16 ?v_57) ?v_133)) (or (or ?v_29 ?v_6) ?v_117)) (or (or P17 P38) ?v_197)) (or (or ?v_166 ?v_19) ?v_2)) (or (or ?v_74 ?v_34) P1)) (or (or ?v_4 ?v_3) ?v_12)) (or (or P49 ?v_141) ?v_70)) (or (or P41 ?v_169) ?v_71)) (or (or P1 ?v_64) P0)) (or (or P46 ?v_56) ?v_33)) (or (or ?v_97 ?v_23) ?v_134)) (or (or ?v_15 ?v_51) ?v_66)) (or (or P29 P6) ?v_13)) (or (or ?v_28 ?v_11) ?v_25)) (or (or ?v_1 ?v_76) P3)) (or (or ?v_2 ?v_14) ?v_17)) (or (or ?v_4 ?v_62) ?v_60)) (or ?v_210 ?v_152)) (or (or ?v_7 ?v_69) ?v_8)) (or (or ?v_21 P38) ?v_8)) (or (or ?v_32 ?v_31) P28)) (or (or P7 ?v_55) ?v_53)) (or (or ?v_96 ?v_10) ?v_37)) (or (or ?v_209 ?v_54) ?v_246)) (or (or ?v_126 ?v_116) ?v_130)) (or (or P10 ?v_91) ?v_24)) (or (or P43 ?v_35) ?v_2)) (or (or ?v_13 ?v_50) P0)) (or (or ?v_14 ?v_15) ?v_93)) (or (or ?v_144 ?v_16) ?v_22)) (or (or ?v_30 ?v_5) ?v_17)) (or (or ?v_95 ?v_205) ?v_128)) (or (or P0 ?v_18) ?v_19)) (or (or ?v_80 ?v_49) ?v_21)) (or (or ?v_36 P27) ?v_22)) (or (or P3 ?v_23) ?v_24)) (or (or ?v_25 ?v_26) ?v_27)) (or (or ?v_28 ?v_85) P32)) (or (or P36 P6) ?v_29)) (or (or ?v_104 ?v_81) ?v_30)) (or (or ?v_28 ?v_42) ?v_31)) (or (or ?v_40 ?v_24) ?v_135)) (or (or ?v_47 P17) P46)) (or (or ?v_79 ?v_28) ?v_41)) (or (or ?v_32 ?v_82) P42)) (or (or P20 ?v_33) P49)) (or (or ?v_43 ?v_45) ?v_113)) (or (or ?v_35 ?v_36) ?v_10)) (or (or ?v_68 ?v_19) ?v_183)) (or (or ?v_139 ?v_67) ?v_204)) (or (or ?v_37 P32) ?v_164)) (or (or ?v_101 ?v_40) ?v_6)) (or (or ?v_142 ?v_41) ?v_42)) (or (or ?v_233 ?v_43) ?v_15)) (or (or ?v_44 ?v_45) ?v_179)) (or (or ?v_73 ?v_84) ?v_46)) (or (or ?v_47 ?v_48) ?v_49)) (or (or ?v_90 P24) ?v_50)) (or (or ?v_215 ?v_51) ?v_52)) (or (or ?v_53 ?v_150) ?v_54)) (or (or P4 ?v_55) ?v_56)) (or (or ?v_6 P24) ?v_57)) (or (or ?v_72 ?v_59) ?v_146)) (or (or ?v_87 ?v_60) ?v_88)) (or (or P31 ?v_61) ?v_62)) (or (or ?v_172 ?v_63) P41)) (or (or ?v_52 P31) ?v_64)) (or (or ?v_184 ?v_255) ?v_66)) (or (or P40 ?v_253) ?v_13)) (or (or P1 P38) ?v_41)) (or (or ?v_200 P41) ?v_191)) (or (or ?v_162 ?v_125) ?v_15)) (or (or ?v_86 ?v_224) ?v_69)) (or (or P21 P22) ?v_68)) (or (or ?v_70 ?v_71) ?v_72)) (or (or ?v_120 P21) ?v_74)) (or (or ?v_123 ?v_57) ?v_114)) (or (or ?v_76 ?v_199) ?v_94)) (or (or ?v_77 ?v_159) P38)) (or (or ?v_79 P6) ?v_7)) (or (or P23 ?v_16) ?v_127)) (or (or ?v_80 ?v_25) ?v_8)) (or (or ?v_81 ?v_82) ?v_37)) (or (or ?v_33 ?v_83) P21)) (or (or ?v_73 P23) ?v_84)) (or (or ?v_118 P39) ?v_85)) (or (or P48 ?v_59) P7)) (or (or ?v_86 P13) ?v_87)) (or (or ?v_88 (not ?v_112)) ?v_89)) (or (or P23 ?v_48) ?v_5)) (or (or ?v_90 ?v_91) ?v_88)) (or (or ?v_192 ?v_6) ?v_33)) (or (or ?v_73 ?v_216) ?v_83)) (or (or ?v_106 ?v_137) ?v_57)) (or (or P5 ?v_93) P47)) (or (or ?v_21 ?v_250) P2)) (or (or ?v_94 ?v_105) ?v_132)) (or (or ?v_44 ?v_96) ?v_187)) (or (or ?v_16 ?v_98) ?v_27)) (or (or ?v_188 ?v_99) ?v_100)) (or (or ?v_8 ?v_101) ?v_102)) (or (or P12 P17) ?v_77)) (or (or ?v_229 ?v_165) ?v_27)) (or (or P38 ?v_25) ?v_103)) (or (or ?v_32 ?v_145) ?v_104)) (or (or P48 ?v_33) ?v_105)) (or (or ?v_124 P2) ?v_13)) (or (or ?v_35 ?v_40) ?v_19)) (or (or ?v_73 ?v_51) ?v_163)) (or (or ?v_44 ?v_106) ?v_76)) (or (or ?v_107 ?v_53) ?v_108)) (or (or ?v_119 ?v_109) ?v_243)) (or (or ?v_110 ?v_69) ?v_111)) (or (or ?v_237 ?v_112) ?v_211)) (or (or ?v_167 ?v_114) P26)) (or (or P9 ?v_181) ?v_97)) (or (or P22 ?v_31) ?v_115)) (or (or ?v_116 ?v_94) ?v_33)) (or (or ?v_91 ?v_85) ?v_117)) (or (or ?v_2 ?v_122) P37)) (or (or ?v_59 P18) ?v_19)) (or (or ?v_118 ?v_96) ?v_131)) (or (or ?v_151 ?v_170) ?v_119)) (or (or ?v_120 ?v_121) ?v_198)) (or (or ?v_89 ?v_122) ?v_186)) (or (or ?v_44 ?v_123) P6)) (or (or P18 ?v_86) ?v_97)) (or (or ?v_223 P37) ?v_143)) (or (or ?v_43 ?v_47) ?v_73)) (or (or ?v_148 ?v_178) P27)) (or (or ?v_158 P36) ?v_102)) (or (or ?v_201 P28) ?v_63)) (or (or ?v_42 ?v_147) ?v_127)) (or (or ?v_128 ?v_149) ?v_22)) (or (or ?v_130 ?v_76) ?v_227)) (or (or ?v_48 ?v_3) ?v_131)) (or (or ?v_115 ?v_132) ?v_116)) (or (or P0 P33) P30)) (or (or ?v_68 ?v_112) ?v_12)) (or (or ?v_85 ?v_5) ?v_99)) (or (or ?v_17 ?v_155) ?v_190)) (or (or ?v_30 ?v_133) ?v_134)) (or (or ?v_2 ?v_153) ?v_135)) (or (or ?v_40 P42) ?v_50)) (or (or ?v_84 ?v_136) ?v_137)) (or (or ?v_156 ?v_91) P37)) (or (or ?v_138 ?v_130) ?v_97)) (or (or P24 P9) ?v_154)) (or (or ?v_104 ?v_2) ?v_13)) (or (or ?v_140 ?v_61) ?v_217)) (or (or ?v_132 ?v_45) ?v_142)) (or (or P4 ?v_143) ?v_120)) (or (or ?v_33 ?v_144) ?v_145)) (or (or ?v_33 ?v_103) ?v_146)) (or (or ?v_89 ?v_147) ?v_108)) (or (or ?v_148 ?v_71) ?v_203)) (or (or P24 ?v_173) ?v_100)) (or (or ?v_64 ?v_60) ?v_218)) (or (or ?v_175 ?v_128) ?v_150)) (or (or ?v_151 ?v_68) ?v_212)) (or (or ?v_26 ?v_152) ?v_153)) (or (or ?v_130 ?v_154) ?v_155)) (or (or ?v_174 ?v_109) ?v_68)) (or (or ?v_142 ?v_86) ?v_156)) (or (or ?v_96 ?v_42) ?v_161)) (or (or P0 ?v_85) ?v_157)) (or (or ?v_44 ?v_60) P18)) (or (or ?v_158 ?v_105) ?v_10)) (or (or ?v_159 ?v_31) ?v_74)) (or (or ?v_125 ?v_71) ?v_73)) (or (or ?v_32 ?v_28) ?v_160)) (or (or ?v_161 ?v_101) P18)) (or (or ?v_76 ?v_162) ?v_10)) (or (or P16 ?v_96) ?v_163)) (or (or ?v_164 ?v_150) ?v_95)) (or (or ?v_165 ?v_35) P19)) (or (or ?v_228 ?v_151) ?v_34)) (or (or ?v_70 ?v_166) ?v_99)) (or (or ?v_50 ?v_153) ?v_118)) (or (or ?v_167 ?v_145) ?v_168)) (or (or ?v_138 ?v_27) ?v_254)) (or (or ?v_241 ?v_170) P6)) (or (or (not ?v_43) ?v_171) ?v_143)) (or (or ?v_110 P15) ?v_95)) (or (or ?v_10 ?v_172) ?v_110)) (or (or P26 ?v_225) ?v_68)) (or (or ?v_110 ?v_148) P31)) (or (or P18 ?v_21) ?v_131)) (or (or ?v_173 ?v_163) ?v_102)) (or (or ?v_43 ?v_114) ?v_46)) (or (or ?v_256 ?v_174) ?v_180)) (or (or ?v_163 ?v_161) ?v_41)) (or (or ?v_153 ?v_113) ?v_37)) (or (or ?v_124 ?v_175) ?v_62)) (or (or ?v_176 ?v_31) P14)) (or (or ?v_138 P16) ?v_157)) (or (or ?v_24 ?v_177) ?v_36)) (or (or ?v_3 ?v_147) ?v_101)) (or (or ?v_193 ?v_76) ?v_178)) (or (or P39 ?v_179) ?v_143)) (or (or ?v_8 P42) ?v_73)) (or (or ?v_48 ?v_167) ?v_141)) (or (or ?v_54 ?v_68) ?v_6)) (or (or ?v_180 ?v_181) ?v_131)) (or (or ?v_182 ?v_170) ?v_21)) (or (or P26 ?v_54) ?v_118)) (or (or ?v_89 ?v_183) ?v_138)) (or (or ?v_168 ?v_17) ?v_184)) (or (or ?v_185 ?v_147) ?v_27)) (or (or P3 ?v_111) P11)) (or (or P40 ?v_186) ?v_185)) (or (or ?v_137 ?v_108) P7)) (or (or P39 ?v_219) ?v_151)) (or (or ?v_70 ?v_172) P7)) (or (or P46 ?v_49) ?v_164)) (or (or ?v_187 ?v_143) ?v_188)) (or (or ?v_183 ?v_120) ?v_196)) (or (or ?v_202 ?v_122) ?v_76)) (or (or ?v_42 ?v_94) P13)) (or (or ?v_190 ?v_31) ?v_137)) (or (or P10 ?v_191) ?v_192)) (or (or ?v_105 ?v_49) ?v_156)) (or (or ?v_117 ?v_186) ?v_143)) (or (or ?v_139 ?v_82) P34)) (or (or ?v_193 ?v_117) ?v_208)) (or (or ?v_194 ?v_159) ?v_195)) (or (or ?v_158 P5) ?v_62)) (or (or ?v_31 ?v_174) ?v_196)) (or (or ?v_33 ?v_34) ?v_112)) (or (or ?v_100 ?v_91) ?v_145)) (or (or P47 ?v_21) ?v_131)) (or (or ?v_197 ?v_144) ?v_104)) (or (or ?v_178 ?v_168) ?v_132)) (or (or P43 ?v_198) ?v_199)) (or (or ?v_60 ?v_200) ?v_25)) (or (or ?v_238 ?v_52) ?v_79)) (or (or P20 ?v_52) ?v_100)) (or (or ?v_231 ?v_162) ?v_119)) (or (or P19 ?v_121) P40)) (or (or ?v_101 P38) ?v_226)) (or (or ?v_52 ?v_184) ?v_56)) (or (or ?v_73 ?v_193) ?v_168)) (or (or ?v_76 ?v_201) ?v_48)) (or (or ?v_47 ?v_196) ?v_164)) (or (or ?v_221 ?v_138) P12)) (or (or P37 ?v_149) ?v_153)) (or (or ?v_203 ?v_30) ?v_95)) (or (or ?v_24 ?v_204) ?v_12)) (or (or ?v_6 ?v_67) ?v_41)) (or (or ?v_19 ?v_205) ?v_109)) (or (or ?v_206 ?v_175) P43)) (or (or P24 ?v_73) ?v_207)) (or (or ?v_144 ?v_15) ?v_66)) (or (or P29 ?v_208) ?v_209)) (or ?v_222 P33)) (or ?v_210 ?v_135)) (or (or ?v_193 ?v_21) ?v_211)) (or (or ?v_220 ?v_23) P4)) (or (or ?v_139 ?v_212) ?v_232)) (or (or ?v_213 P34) ?v_86)) (or (or P40 ?v_130) ?v_98)) (or (or ?v_106 ?v_214) ?v_44)) (or (or ?v_215 ?v_114) ?v_132)) (or (or ?v_159 ?v_147) ?v_156)) (or (or ?v_57 ?v_96) ?v_105)) (or (or ?v_60 ?v_176) ?v_55)) (or (or ?v_162 P22) ?v_245)) (or (or P17 ?v_143) ?v_175)) (or (or ?v_19 ?v_44) ?v_148)) (or (or ?v_23 ?v_135) ?v_216)) (or (or ?v_2 ?v_217) P2)) (or (or ?v_83 ?v_218) P9)) (or (or ?v_24 P35) ?v_179)) (or (or ?v_95 ?v_219) ?v_138)) (or (or P39 ?v_53) ?v_194)) (or (or P36 ?v_22) ?v_109)) (or (or P17 ?v_57) ?v_203)) (or (or P18 ?v_213) ?v_220)) (or (or ?v_242 P13) ?v_216)) (or (or P10 P22) ?v_99)) (or (or ?v_185 ?v_142) P45)) (or (or ?v_166 ?v_136) P11)) (or (or ?v_95 P16) ?v_151)) (or (or P27 ?v_257) ?v_87)) (or (or ?v_221 ?v_71) ?v_33)) (or ?v_222 ?v_135)) (or (or ?v_36 ?v_81) ?v_29)) (or (or P45 ?v_158) ?v_134)) (or (or ?v_98 P13) ?v_131)) (or (or P37 ?v_82) ?v_200)) (or (or ?v_49 ?v_167) ?v_223)) (or (or ?v_28 ?v_69) ?v_3)) (or (or P3 ?v_224) ?v_239)) (or (or ?v_67 ?v_120) ?v_168)) (or (or ?v_93 ?v_160) ?v_21)) (or (or ?v_41 ?v_124) ?v_152)) (or (or ?v_193 P24) ?v_225)) (or (or ?v_153 ?v_54) ?v_220)) (or (or P8 ?v_25) ?v_94)) (or (or ?v_143 ?v_146) P43)) (or (or P38 ?v_226) ?v_121)) (or (or ?v_118 ?v_215) ?v_169)) (or (or ?v_121 ?v_227) ?v_99)) (or (or ?v_176 ?v_156) ?v_228)) (or (or P28 ?v_72) ?v_127)) (or (or ?v_31 ?v_124) P16)) (or (or ?v_10 ?v_52) P18)) (or (or ?v_80 ?v_149) ?v_126)) (or (or ?v_46 ?v_54) ?v_136)) (or (or ?v_175 ?v_192) ?v_67)) (or (or ?v_229 ?v_214) ?v_79)) (or (or ?v_111 ?v_146) P47)) (or (or ?v_21 ?v_18) ?v_7)) (or (or ?v_148 ?v_197) P9)) (or (or ?v_43 ?v_230) ?v_168)) (or (or ?v_95 ?v_50) ?v_157)) (or (or P49 ?v_137) ?v_82)) (or (or ?v_48 P44) ?v_14)) (or (or P18 ?v_178) P36)) (or (or ?v_61 ?v_88) ?v_175)) (or (or ?v_100 ?v_51) ?v_148)) (or (or ?v_235 ?v_211) P49)) (or (or P22 P23) ?v_56)) (or (or ?v_178 P3) ?v_101)) (or (or P13 P3) ?v_13)) (or (or ?v_95 ?v_211) ?v_23)) (or (or ?v_50 P38) P42)) (or (or ?v_145 ?v_199) P37)) (or (or ?v_218 ?v_33) P46)) (or (or ?v_123 ?v_230) ?v_52)) (or (or ?v_82 ?v_117) ?v_67)) (or (or ?v_44 ?v_121) ?v_25)) (or (or P6 ?v_175) ?v_37)) (or (or ?v_61 ?v_180) ?v_133)) (or (or ?v_88 ?v_130) P48)) (or (or P44 ?v_226) ?v_68)) (or (or ?v_146 ?v_71) (not ?v_219))) (or (or ?v_46 ?v_76) P43)) (or (or ?v_165 ?v_136) ?v_140)) (or (or ?v_251 ?v_139) ?v_172)) (or (or ?v_110 ?v_76) ?v_50)) (or (or ?v_28 ?v_104) P19)) (or (or ?v_98 ?v_128) ?v_87)) (or (or ?v_162 ?v_182) ?v_149)) (or (or ?v_52 ?v_178) P35)) (or (or ?v_72 ?v_99) ?v_173)) (or (or ?v_174 ?v_103) ?v_167)) (or (or ?v_25 ?v_74) ?v_153)) (or (or ?v_141 ?v_11) ?v_231)) (or (or P11 ?v_223) ?v_121)) (or (or ?v_203 ?v_83) ?v_232)) (or (or ?v_169 ?v_23) ?v_119)) (or (or ?v_231 ?v_15) ?v_103)) (or (or ?v_149 ?v_198) ?v_23)) (or (or ?v_133 ?v_148) ?v_182)) (or (or ?v_134 ?v_112) ?v_104)) (or (or ?v_233 ?v_135) ?v_68)) (or (or ?v_103 P27) ?v_184)) (or (or ?v_47 ?v_183) P14)) (or (or ?v_216 ?v_102) ?v_162)) (or (or ?v_196 ?v_81) ?v_46)) (or (or ?v_44 ?v_200) P46)) (or (or ?v_16 ?v_187) ?v_234)) (or (or ?v_12 ?v_143) ?v_147)) (or (or ?v_150 P18) ?v_10)) (or (or ?v_145 ?v_203) ?v_221)) (or (or ?v_87 ?v_236) P22)) (or (or P31 ?v_199) ?v_161)) (or (or P38 ?v_108) P4)) (or (or ?v_235 ?v_236) ?v_68)) (or (or ?v_79 ?v_249) ?v_2)) (or (or ?v_16 ?v_219) ?v_180)) (or (or ?v_183 ?v_216) ?v_145)) (or (or ?v_194 ?v_192) P22)) (or (or ?v_133 ?v_209) ?v_93)) (or (or ?v_215 ?v_138) ?v_149)) (or (or ?v_81 ?v_234) P36)) (or (or P49 ?v_18) P11)) (or (or ?v_143 P19) P3)) (or (or P44 P38) ?v_194)) (or (or ?v_175 ?v_138) ?v_43)) (or (or ?v_237 ?v_238) ?v_128)) (or (or ?v_77 ?v_10) ?v_169)) (or (or ?v_190 ?v_168) ?v_186)) (or (or ?v_118 P23) ?v_191)) (or (or ?v_237 ?v_127) ?v_195)) (or (or ?v_80 ?v_146) ?v_186)) (or (or ?v_174 ?v_70) P41)) (or (or ?v_199 ?v_52) ?v_224)) (or (or ?v_89 ?v_123) ?v_87)) (or (or ?v_212 ?v_16) ?v_86)) (or (or ?v_13 ?v_190) ?v_162)) (or (or ?v_223 ?v_160) P11)) (or (or ?v_203 ?v_159) P17)) (or (or P0 ?v_154) ?v_209)) (or (or ?v_80 ?v_225) ?v_22)) (or (or ?v_235 ?v_121) ?v_132)) (or (or ?v_148 ?v_130) ?v_146)) (or (or ?v_69 ?v_18) ?v_83)) (or (or P45 ?v_48) P31)) (or (or ?v_36 ?v_191) ?v_161)) (or (or ?v_102 P41) ?v_165)) (or (or ?v_142 P46) ?v_136)) (or (or ?v_223 ?v_103) ?v_224)) (or (or P5 ?v_144) P42)) (or (or ?v_115 ?v_86) ?v_176)) (or (or ?v_130 ?v_223) ?v_95)) (or (or ?v_100 ?v_247) ?v_63)) (or (or ?v_60 ?v_236) P42)) (or (or P39 ?v_40) ?v_221)) (or (or ?v_88 ?v_240) ?v_223)) (or (or P17 P36) ?v_10)) (or (or ?v_51 ?v_238) ?v_11)) (or (or ?v_1 ?v_233) ?v_104)) (or (or ?v_101 ?v_241) ?v_117)) (or (or ?v_47 ?v_40) ?v_54)) (or (or P41 ?v_232) ?v_161)) (or (or ?v_242 ?v_185) ?v_5)) (or (or ?v_119 P29) ?v_95)) (or (or ?v_173 ?v_73) ?v_107)) (or (or ?v_166 P4) ?v_214)) (or (or ?v_167 ?v_111) ?v_56)) (or (or ?v_238 ?v_56) ?v_7)) (or (or ?v_118 P14) ?v_104)) (or (or ?v_176 ?v_194) ?v_104)) (or (or ?v_117 ?v_124) ?v_93)) (or (or P23 ?v_197) ?v_45)) (or (or ?v_33 ?v_205) ?v_17)) (or (or ?v_120 ?v_90) ?v_186)) (or (or ?v_162 ?v_243) ?v_90)) (or (or ?v_112 ?v_244) ?v_91)) (or (or ?v_5 ?v_248) P0)) (or (or ?v_73 P20) ?v_125)) (or (or ?v_36 ?v_82) ?v_202)) (or (or ?v_16 ?v_160) ?v_150)) (or (or ?v_207 ?v_119) P0)) (or (or ?v_82 ?v_183) ?v_98)) (or (or ?v_225 ?v_50) ?v_231)) (or (or ?v_57 ?v_200) ?v_37)) (or (or ?v_195 ?v_6) ?v_30)) (or (or P38 ?v_55) ?v_234)) (or (or ?v_214 ?v_67) P18)) (or (or ?v_29 ?v_245) ?v_70)) (or (or ?v_184 ?v_167) P24)) (or (or ?v_18 ?v_144) ?v_156)) (or (or ?v_115 ?v_62) ?v_191)) (or (or ?v_238 P37) ?v_42)) (or (or ?v_34 ?v_103) ?v_67)) (or (or ?v_34 P30) ?v_43)) (or (or ?v_192 ?v_88) P21)) (or (or ?v_15 P47) ?v_239)) (or (or ?v_100 ?v_49) P21)) (or (or P14 ?v_142) P24)) (or (or ?v_116 ?v_10) ?v_246)) (or (or P0 ?v_123) ?v_247)) (or (or P43 ?v_248) ?v_149)) (or (or ?v_64 ?v_138) ?v_188)) (or (or ?v_211 P20) ?v_6)) (or (or ?v_238 ?v_1) P6)) (or (or ?v_158 P7) ?v_240)) (or (or ?v_204 ?v_18) ?v_110)) (or (or P29 ?v_163) P44)) (or (or P22 ?v_192) P46)) (or (or ?v_130 P17) ?v_49)) (or (or ?v_192 ?v_29) ?v_37)) (or (or ?v_161 ?v_225) ?v_246)) (or (or ?v_138 ?v_107) P19)) (or (or ?v_178 ?v_98) ?v_44)) (or (or ?v_125 ?v_109) ?v_184)) (or (or ?v_135 ?v_205) ?v_140)) (or (or ?v_138 ?v_230) ?v_145)) (or (or ?v_29 P36) ?v_71)) (or (or ?v_16 ?v_59) ?v_53)) (or (or ?v_179 ?v_17) ?v_149)) (or (or ?v_150 ?v_134) ?v_108)) (or (or ?v_84 ?v_4) ?v_175)) (or (or P25 ?v_35) ?v_88)) (or (or ?v_81 ?v_169) ?v_206)) (or (or ?v_5 ?v_150) ?v_236)) (or (or P24 P34) ?v_228)) (or (or ?v_182 P49) ?v_170)) (or (or P21 ?v_160) ?v_216)) (or (or P14 ?v_74) ?v_124)) (or (or ?v_209 ?v_223) ?v_229)) (or (or P27 ?v_223) ?v_204)) (or (or ?v_51 ?v_190) ?v_76)) (or (or P47 ?v_229) P23)) (or (or ?v_223 ?v_69) ?v_126)) (or (or ?v_151 ?v_179) ?v_236)) (or (or P41 ?v_152) ?v_85)) (or (or P14 ?v_249) P48)) (or (or ?v_217 ?v_131) P25)) (or (or ?v_81 ?v_250) ?v_178)) (or (or P36 ?v_85) ?v_99)) (or (or P29 ?v_102) ?v_19)) (or (or ?v_67 P43) ?v_126)) (or (or ?v_150 ?v_196) ?v_151)) (or (or ?v_199 ?v_79) ?v_249)) (or (or ?v_162 P34) ?v_218)) (or (or ?v_244 ?v_128) ?v_156)) (or (or ?v_100 ?v_156) ?v_17)) (or (or ?v_71 ?v_6) P40)) (or (or ?v_25 ?v_5) ?v_72)) (or (or P27 ?v_148) ?v_8)) (or (or P20 ?v_197) ?v_127)) (or (or ?v_237 P20) ?v_113)) (or (or ?v_115 ?v_190) ?v_105)) (or (or ?v_104 ?v_166) ?v_115)) (or (or ?v_89 ?v_195) ?v_102)) (or (or ?v_251 ?v_174) ?v_114)) (or (or ?v_177 ?v_209) P22)) (or (or ?v_111 ?v_150) ?v_252)) (or (or ?v_238 ?v_59) ?v_74)) (or (or ?v_35 ?v_223) ?v_21)) (or (or ?v_141 ?v_246) ?v_87)) (or (or P43 ?v_111) ?v_136)) (or (or ?v_104 P7) ?v_36)) (or (or ?v_219 ?v_84) P28)) (or (or ?v_53 ?v_102) ?v_236)) (or (or ?v_52 ?v_228) P17)) (or (or ?v_186 ?v_251) P36)) (or (or ?v_91 P41) ?v_241)) (or (or P9 P13) ?v_70)) (or (or ?v_251 ?v_5) ?v_224)) (or (or ?v_76 P43) ?v_165)) (or (or ?v_166 ?v_89) ?v_180)) (or (or ?v_234 ?v_203) ?v_106)) (or (or ?v_169 ?v_219) ?v_251)) (or (or ?v_112 ?v_175) ?v_253)) (or (or ?v_219 ?v_253) ?v_21)) (or (or ?v_169 P40) ?v_28)) (or (or ?v_33 ?v_11) ?v_71)) (or (or ?v_253 ?v_171) ?v_148)) (or (or ?v_183 ?v_170) ?v_234)) (or (or ?v_100 ?v_16) ?v_234)) (or (or ?v_148 ?v_87) ?v_57)) (or (or ?v_122 ?v_188) ?v_244)) (or (or ?v_101 ?v_130) ?v_251)) (or (or ?v_6 ?v_243) ?v_82)) (or (or ?v_254 P19) ?v_45)) (or (or ?v_41 ?v_106) P1)) (or (or ?v_132 ?v_90) ?v_101)) (or (or ?v_246 ?v_21) ?v_128)) (or (or ?v_43 ?v_62) ?v_44)) (or (or ?v_155 ?v_215) P10)) (or (or ?v_18 ?v_180) ?v_229)) (or (or P18 ?v_248) ?v_126)) (or (or ?v_23 P41) P7)) (or (or ?v_162 ?v_102) ?v_136)) (or (or ?v_249 ?v_87) ?v_24)) (or (or ?v_219 ?v_86) P8)) (or (or ?v_168 ?v_98) P14)) (or (or ?v_191 ?v_108) ?v_237)) (or (or P10 ?v_114) ?v_28)) (or (or ?v_68 ?v_128) ?v_93)) (or (or ?v_226 P6) ?v_190)) (or (or ?v_47 ?v_213) P23)) (or (or ?v_240 ?v_1) ?v_55)) (or (or P29 P38) ?v_142)) (or (or ?v_194 ?v_206) ?v_177)) (or (or ?v_255 ?v_104) P15)) (or (or ?v_11 ?v_225) ?v_226)) (or (or ?v_104 (not ?v_118)) ?v_77)) (or (or ?v_207 ?v_240) ?v_183)) (or (or ?v_187 ?v_66) ?v_17)) (or (or ?v_10 ?v_19) P28)) (or (or ?v_82 ?v_166) P21)) (or (or ?v_198 ?v_114) P2)) (or (or ?v_229 P39) ?v_23)) (or (or ?v_100 ?v_224) ?v_160)) (or (or ?v_44 ?v_217) P39)) (or (or ?v_121 ?v_158) P1)) (or (or ?v_41 ?v_202) ?v_33)) (or (or ?v_109 ?v_7) ?v_114)) (or (or ?v_86 P43) P23)) (or (or ?v_207 ?v_47) P0)) (or (or ?v_225 ?v_194) ?v_112)) (or (or P46 ?v_66) ?v_107)) (or (or ?v_28 ?v_239) ?v_173)) (or (or ?v_25 P20) P27)) (or (or P41 ?v_66) ?v_242)) (or (or P27 ?v_140) ?v_84)) (or (or ?v_219 ?v_181) ?v_208)) (or (or ?v_117 ?v_30) P9)) (or (or ?v_246 ?v_170) ?v_47)) (or (or ?v_216 ?v_154) ?v_181)) (or (or ?v_79 P48) ?v_256)) (or (or ?v_164 ?v_248) P35)) (or (or ?v_16 ?v_23) ?v_132)) (or (or ?v_257 ?v_200) P8)) (or (or ?v_115 ?v_181) ?v_248)) (or (or P2 P46) P20)) (or (or ?v_255 P9) ?v_144)) (or (or ?v_56 ?v_3) ?v_45)) (or (or ?v_85 ?v_176) ?v_151)) (or (or ?v_159 ?v_76) ?v_179)) (or (or ?v_156 P26) ?v_76)) (or (or ?v_230 P13) ?v_109)) (or (or ?v_130 ?v_183) ?v_83)))))))))))))))))))))))))))))))))))))
(check-sat)
(exit)
